NAME 
ROWS
 N  OBJ
 L  R0      
 E  R1      
 E  R2      
 E  R3      
 E  R4      
 E  R5      
 E  R6      
 E  R7      
 E  R8      
 E  R9      
 E  R10     
 E  R11     
 E  R12     
 E  R13     
 E  R14     
 E  R15     
 E  R16     
 E  R17     
 E  R18     
 E  R19     
 E  R20     
COLUMNS
    MARKER    'MARKER'                 'INTORG'
    I0(5)     OBJ       135
    I0(5)     R0        -150
    I0(5)     R3        2
    I0(5)     R6        2
    I0(5)     R8        3
    I0(5)     R20       1
    I1(10)    OBJ       11
    I1(10)    R0        -140
    I1(10)    R1        12
    I1(10)    R2        12
    I1(10)    R3        16
    I1(10)    R4        13
    I1(10)    R5        7
    I1(10)    R6        13
    I1(10)    R7        19
    I1(10)    R8        3
    I1(10)    R20       1
    I2(9)     OBJ       -185
    I2(9)     R0        -52
    I2(9)     R1        15
    I2(9)     R2        14
    I2(9)     R3        3
    I2(9)     R4        8
    I2(9)     R5        4
    I2(9)     R6        8
    I2(9)     R7        11
    I2(9)     R20       1
    I3(6)     OBJ       196
    I3(6)     R0        5
    I3(6)     R4        18
    I3(6)     R5        2
    I3(6)     R7        8
    I3(6)     R8        10
    I3(6)     R20       1
    I4(7)     OBJ       87
    I4(7)     R0        156
    I4(7)     R2        -1
    I4(7)     R4        3
    I4(7)     R6        13
    I4(7)     R7        -1
    I4(7)     R8        18
    I4(7)     R20       1
    I5(4)     OBJ       82
    I5(4)     R0        -121
    I5(4)     R1        4
    I5(4)     R7        18
    I5(4)     R20       1
    I6(6)     OBJ       10
    I6(6)     R0        -197
    I6(6)     R3        -1
    I6(6)     R4        13
    I6(6)     R7        19
    I6(6)     R8        11
    I6(6)     R20       1
    I7(8)     OBJ       -38
    I7(8)     R0        189
    I7(8)     R1        5
    I7(8)     R2        8
    I7(8)     R5        4
    I7(8)     R6        11
    I7(8)     R7        4
    I7(8)     R8        19
    I7(8)     R20       1
    MARKER    'MARKER'                 'INTEND'
    C8(14)    OBJ       -9
    C8(14)    R0        -7
    C8(14)    R1        -1
    C8(14)    R2        11
    C8(14)    R3        6
    C8(14)    R4        8
    C8(14)    R7        10
    C8(14)    R9        4
    C8(14)    R10       19
    C8(14)    R13       17
    C8(14)    R14       3
    C8(14)    R15       12
    C8(14)    R16       4
    C8(14)    R17       14
    C8(14)    R18       -1
    C9(14)    OBJ       6
    C9(14)    R0        -9
    C9(14)    R1        9
    C9(14)    R3        -1
    C9(14)    R4        19
    C9(14)    R5        7
    C9(14)    R6        4
    C9(14)    R7        1
    C9(14)    R9        19
    C9(14)    R13       13
    C9(14)    R14       16
    C9(14)    R15       9
    C9(14)    R17       13
    C9(14)    R18       2
    C9(14)    R19       1
    C10(18)   OBJ       7
    C10(18)   R0        1
    C10(18)   R2        1
    C10(18)   R3        15
    C10(18)   R4        7
    C10(18)   R5        1
    C10(18)   R6        8
    C10(18)   R7        -1
    C10(18)   R8        1
    C10(18)   R10       12
    C10(18)   R11       8
    C10(18)   R12       15
    C10(18)   R13       12
    C10(18)   R14       5
    C10(18)   R15       7
    C10(18)   R16       15
    C10(18)   R17       10
    C10(18)   R18       7
    C10(18)   R19       4
    C11(12)   OBJ       1
    C11(12)   R2        11
    C11(12)   R3        3
    C11(12)   R4        18
    C11(12)   R6        14
    C11(12)   R8        2
    C11(12)   R9        11
    C11(12)   R12       1
    C11(12)   R13       19
    C11(12)   R15       5
    C11(12)   R17       9
    C11(12)   R18       11
    C11(12)   R19       18
    C12(14)   OBJ       -4
    C12(14)   R0        -10
    C12(14)   R3        14
    C12(14)   R4        18
    C12(14)   R6        6
    C12(14)   R7        15
    C12(14)   R8        15
    C12(14)   R10       13
    C12(14)   R11       13
    C12(14)   R12       19
    C12(14)   R13       14
    C12(14)   R14       19
    C12(14)   R16       17
    C12(14)   R18       6
    C12(14)   R19       5
    C13(15)   OBJ       6
    C13(15)   R0        -4
    C13(15)   R1        2
    C13(15)   R3        4
    C13(15)   R4        -1
    C13(15)   R6        14
    C13(15)   R7        6
    C13(15)   R8        1
    C13(15)   R9        17
    C13(15)   R10       5
    C13(15)   R11       8
    C13(15)   R12       14
    C13(15)   R13       2
    C13(15)   R14       15
    C13(15)   R15       3
    C13(15)   R18       1
    C14(12)   OBJ       3
    C14(12)   R0        -1
    C14(12)   R2        19
    C14(12)   R3        11
    C14(12)   R4        12
    C14(12)   R6        9
    C14(12)   R7        8
    C14(12)   R9        17
    C14(12)   R10       5
    C14(12)   R13       1
    C14(12)   R15       7
    C14(12)   R18       12
    C14(12)   R19       7
    C15(13)   OBJ       2
    C15(13)   R0        6
    C15(13)   R4        10
    C15(13)   R5        2
    C15(13)   R6        9
    C15(13)   R7        1
    C15(13)   R8        7
    C15(13)   R9        19
    C15(13)   R12       8
    C15(13)   R13       8
    C15(13)   R14       16
    C15(13)   R15       3
    C15(13)   R16       7
    C15(13)   R17       17
    C16(12)   OBJ       -9
    C16(12)   R0        -2
    C16(12)   R1        5
    C16(12)   R4        2
    C16(12)   R5        9
    C16(12)   R6        15
    C16(12)   R7        3
    C16(12)   R9        2
    C16(12)   R10       17
    C16(12)   R13       9
    C16(12)   R14       12
    C16(12)   R17       17
    C16(12)   R18       4
    C17(15)   OBJ       -2
    C17(15)   R0        5
    C17(15)   R1        7
    C17(15)   R2        17
    C17(15)   R3        16
    C17(15)   R4        14
    C17(15)   R6        16
    C17(15)   R7        -1
    C17(15)   R10       13
    C17(15)   R11       -1
    C17(15)   R13       3
    C17(15)   R14       19
    C17(15)   R15       3
    C17(15)   R16       6
    C17(15)   R18       9
    C17(15)   R19       13
    C18(12)   OBJ       9
    C18(12)   R0        3
    C18(12)   R1        8
    C18(12)   R2        4
    C18(12)   R3        4
    C18(12)   R4        9
    C18(12)   R7        7
    C18(12)   R8        10
    C18(12)   R9        8
    C18(12)   R11       4
    C18(12)   R12       4
    C18(12)   R14       4
    C18(12)   R17       6
    C19(13)   OBJ       -8
    C19(13)   R0        3
    C19(13)   R1        18
    C19(13)   R2        17
    C19(13)   R3        17
    C19(13)   R5        4
    C19(13)   R6        11
    C19(13)   R7        8
    C19(13)   R9        12
    C19(13)   R10       12
    C19(13)   R11       8
    C19(13)   R12       -1
    C19(13)   R15       12
    C19(13)   R19       8
    C20(1)    R1        1
    C21(1)    R2        1
    C22(1)    R3        1
    C23(1)    R4        1
    C24(1)    R5        1
    C25(1)    R6        1
    C26(1)    R7        1
    C27(1)    R8        1
    C28(1)    R9        1
    C29(1)    R10       1
    C30(1)    R11       1
    C31(1)    R12       1
    C32(1)    R13       1
    C33(1)    R14       1
    C34(1)    R15       1
    C35(1)    R16       1
    C36(1)    R17       1
    C37(1)    R18       1
    C38(1)    R19       1
    C39(1)    R20       1
RHS
    RHS1      R0        1.3176716781796020e+02
    RHS1      R1        99
    RHS1      R2        71
    RHS1      R3        60
    RHS1      R4        58
    RHS1      R5        96
    RHS1      R6        82
    RHS1      R7        64
    RHS1      R8        63
    RHS1      R9        82
    RHS1      R10       89
    RHS1      R11       75
    RHS1      R12       66
    RHS1      R13       96
    RHS1      R14       84
    RHS1      R15       77
    RHS1      R16       77
    RHS1      R17       63
    RHS1      R18       85
    RHS1      R19       56
    RHS1      R20       2
BOUNDS
 UP BND1      I0(5)     1
 UP BND1      I1(10)    1
 UP BND1      I2(9)     1
 UP BND1      I3(6)     1
 UP BND1      I4(7)     1
 UP BND1      I5(4)     1
 UP BND1      I6(6)     1
 UP BND1      I7(8)     1
ENDATA
